c ind 113 115 117 119 121 123 125 127 14 148 0
c ind 149 153 154 159 160 169 17 170 18 184 0
c ind 186 188 19 190 192 194 196 198 205 207 0
c ind 209 21 211 24 25 270 28 31 310 312 0
c ind 314 316 318 32 320 322 324 336 338 340 0
c ind 342 344 346 348 350 363 365 367 369 371 0
c ind 373 375 377 382 384 386 388 39 397 403 0
c ind 419 42 420 43 432 461 463 465 467 469 0
c ind 471 473 475 477 479 481 483 485 487 489 0
c ind 491 498 500 502 504 528 53 532 537 54 0
c ind 542 547 552 557 562 567 57 572 577 58 0
c ind 582 587 592 597 602 61 641 643 645 647 0
c ind 70 709 718 72 724 730 74 753 758 76 0
c ind 78 80 82 84 93 95 97 99 0
p cnf 765 2340
-1 2 0
-1 745 0
-10 11 0
-10 38 0
-100 -101 105 0
-100 101 128 0
-101 102 0
-101 98 0
-102 103 0
-102 96 0
-103 104 0
-103 94 0
-104 -61 93 0
-104 -93 61 0
-105 106 0
-105 126 0
-106 107 0
-106 124 0
-107 108 0
-107 122 0
-108 109 0
-108 120 0
-109 110 0
-109 118 0
-11 12 0
-11 27 0
-110 111 0
-110 116 0
-111 112 0
-111 114 0
-112 -113 70 0
-112 -70 113 0
-114 -115 72 0
-114 -72 115 0
-116 -117 74 0
-116 -74 117 0
-118 -119 76 0
-118 -76 119 0
-12 13 0
-12 20 0
-120 -121 78 0
-120 -78 121 0
-122 -123 80 0
-122 -80 123 0
-124 -125 82 0
-124 -82 125 0
-126 -127 84 0
-126 -84 127 0
-128 -129 105 0
-128 129 133 0
-129 130 0
-129 98 0
-13 -14 15 0
-13 -15 14 0
-130 131 0
-130 96 0
-131 132 0
-131 92 0
-132 -61 95 0
-132 -95 61 0
-133 -134 105 0
-133 134 137 0
-134 135 0
-134 98 0
-135 136 0
-135 96 0
-136 104 0
-136 132 0
-137 -138 141 0
-137 138 105 0
-138 139 0
-138 98 0
-139 140 0
-139 91 0
-140 -61 97 0
-140 -97 61 0
-141 -142 176 0
-141 142 105 0
-142 143 0
-142 166 0
-143 144 0
-143 156 0
-144 145 0
-144 150 0
-145 -146 19 0
-145 -19 146 0
-146 -147 -19 0
-146 147 19 0
-147 -148 -149 0
-147 148 149 0
-15 -16 -19 0
-15 16 19 0
-150 -151 19 0
-150 -19 151 0
-151 -152 -155 0
-151 152 155 0
-152 -153 -154 0
-152 153 154 0
-155 148 0
-155 149 0
-156 -157 19 0
-156 -19 157 0
-157 -158 -161 0
-157 158 161 0
-158 -159 -160 0
-158 159 160 0
-16 -17 -18 0
-16 17 18 0
-161 162 165 0
-162 163 164 0
-163 153 0
-163 154 0
-164 154 0
-164 155 0
-165 153 0
-165 155 0
-166 -167 19 0
-166 -19 167 0
-167 -168 -171 0
-167 168 171 0
-168 -169 -170 0
-168 169 170 0
-171 172 175 0
-172 173 174 0
-173 159 0
-173 160 0
-174 160 0
-174 161 0
-175 159 0
-175 161 0
-176 177 0
-176 197 0
-177 178 0
-177 195 0
-178 179 0
-178 193 0
-179 180 0
-179 191 0
-180 181 0
-180 189 0
-181 182 0
-181 187 0
-182 183 0
-182 185 0
-183 -184 70 0
-183 -70 184 0
-185 -186 72 0
-185 -72 186 0
-187 -188 74 0
-187 -74 188 0
-189 -190 76 0
-189 -76 190 0
-19 0
-191 -192 78 0
-191 -78 192 0
-193 -194 80 0
-193 -80 194 0
-195 -196 82 0
-195 -82 196 0
-197 -198 84 0
-197 -84 198 0
-199 -50 200 0
-199 50 293 0
-2 3 0
-2 719 0
-20 -21 22 0
-20 -22 21 0
-200 -60 201 0
-200 60 212 0
-201 202 0
-201 210 0
-202 203 0
-202 208 0
-203 204 0
-203 206 0
-204 -19 205 0
-204 -205 19 0
-206 -19 207 0
-206 -207 19 0
-208 -19 209 0
-208 -209 19 0
-210 -19 211 0
-210 -211 19 0
-212 -86 213 0
-212 86 293 0
-213 -89 214 0
-213 89 219 0
-214 -142 215 0
-214 142 201 0
-215 210 0
-215 216 0
-216 208 0
-216 217 0
-217 206 0
-217 218 0
-218 -205 61 0
-218 -61 205 0
-219 -101 220 0
-219 101 225 0
-22 -23 -26 0
-22 23 26 0
-220 -142 221 0
-220 142 201 0
-221 210 0
-221 222 0
-222 208 0
-222 223 0
-223 204 0
-223 224 0
-224 -207 61 0
-224 -61 207 0
-225 -129 226 0
-225 129 230 0
-226 -142 227 0
-226 142 201 0
-227 210 0
-227 228 0
-228 208 0
-228 229 0
-229 218 0
-229 224 0
-23 -24 -25 0
-23 24 25 0
-230 -134 231 0
-230 134 235 0
-231 -142 232 0
-231 142 201 0
-232 210 0
-232 233 0
-233 203 0
-233 234 0
-234 -209 61 0
-234 -61 209 0
-235 -138 236 0
-235 138 239 0
-236 -142 237 0
-236 142 201 0
-237 210 0
-237 238 0
-238 217 0
-238 234 0
-239 -240 242 0
-239 240 262 0
-240 241 0
-240 98 0
-241 103 0
-241 140 0
-242 -243 258 0
-242 243 260 0
-243 244 0
-243 257 0
-244 245 0
-244 256 0
-245 246 0
-245 255 0
-246 247 0
-246 254 0
-247 248 0
-247 253 0
-248 249 0
-248 252 0
-249 250 0
-249 251 0
-250 -113 19 0
-250 -19 113 0
-251 -115 19 0
-251 -19 115 0
-252 -117 19 0
-252 -19 117 0
-253 -119 19 0
-253 -19 119 0
-254 -121 19 0
-254 -19 121 0
-255 -123 19 0
-255 -19 123 0
-256 -125 19 0
-256 -19 125 0
-257 -127 19 0
-257 -19 127 0
-258 210 0
-258 259 0
-259 223 0
-259 234 0
-26 17 0
-26 18 0
-260 228 0
-260 261 0
-261 -211 61 0
-261 -61 211 0
-262 -263 265 0
-262 263 274 0
-263 264 0
-263 98 0
-264 131 0
-264 140 0
-265 -266 201 0
-265 266 272 0
-266 267 0
-266 271 0
-267 268 0
-267 271 0
-268 269 0
-268 271 0
-269 -19 270 0
-269 -270 19 0
-27 -28 29 0
-27 -29 28 0
-271 -19 19 0
-272 210 0
-272 273 0
-273 229 0
-273 234 0
-274 -89 275 0
-274 89 276 0
-275 216 0
-275 261 0
-276 -277 279 0
-276 277 280 0
-277 278 0
-277 98 0
-278 136 0
-278 140 0
-279 222 0
-279 261 0
-280 -281 279 0
-280 281 283 0
-281 102 0
-281 282 0
-282 -61 99 0
-282 -99 61 0
-283 -284 260 0
-283 284 285 0
-284 130 0
-284 282 0
-285 -286 287 0
-285 286 201 0
-286 135 0
-286 282 0
-287 -288 201 0
-287 288 293 0
-288 166 0
-288 289 0
-289 156 0
-289 290 0
-29 -30 -33 0
-29 30 33 0
-290 291 0
-290 292 0
-291 -146 61 0
-291 -61 146 0
-292 -151 61 0
-292 -61 151 0
-293 294 0
-293 299 0
-294 295 0
-294 298 0
-295 296 0
-295 297 0
-296 -205 93 0
-296 -93 205 0
-297 -207 95 0
-297 -95 207 0
-298 -209 97 0
-298 -97 209 0
-299 -211 99 0
-299 -99 211 0
-3 4 0
-3 438 0
-30 -31 -32 0
-30 31 32 0
-300 -50 301 0
-300 50 328 0
-301 -60 302 0
-301 60 325 0
-302 303 0
-302 323 0
-303 304 0
-303 321 0
-304 305 0
-304 319 0
-305 306 0
-305 317 0
-306 307 0
-306 315 0
-307 308 0
-307 313 0
-308 309 0
-308 311 0
-309 -310 61 0
-309 -61 310 0
-311 -312 61 0
-311 -61 312 0
-313 -314 61 0
-313 -61 314 0
-315 -316 61 0
-315 -61 316 0
-317 -318 61 0
-317 -61 318 0
-319 -320 61 0
-319 -61 320 0
-321 -322 61 0
-321 -61 322 0
-323 -324 61 0
-323 -61 324 0
-325 -86 326 0
-325 86 328 0
-326 -89 302 0
-326 89 327 0
-327 -101 328 0
-327 101 351 0
-328 329 0
-328 349 0
-329 330 0
-329 347 0
-33 34 37 0
-330 331 0
-330 345 0
-331 332 0
-331 343 0
-332 333 0
-332 341 0
-333 334 0
-333 339 0
-334 335 0
-334 337 0
-335 -310 336 0
-335 -336 310 0
-337 -312 338 0
-337 -338 312 0
-339 -314 340 0
-339 -340 314 0
-34 35 36 0
-341 -316 342 0
-341 -342 316 0
-343 -318 344 0
-343 -344 318 0
-345 -320 346 0
-345 -346 320 0
-347 -322 348 0
-347 -348 322 0
-349 -324 350 0
-349 -350 324 0
-35 24 0
-35 25 0
-351 -129 328 0
-351 129 352 0
-352 -134 328 0
-352 134 353 0
-353 -138 354 0
-353 138 328 0
-354 -142 355 0
-354 142 328 0
-355 356 0
-355 376 0
-356 357 0
-356 374 0
-357 358 0
-357 372 0
-358 359 0
-358 370 0
-359 360 0
-359 368 0
-36 25 0
-36 26 0
-360 361 0
-360 366 0
-361 362 0
-361 364 0
-362 -310 363 0
-362 -363 310 0
-364 -312 365 0
-364 -365 312 0
-366 -314 367 0
-366 -367 314 0
-368 -316 369 0
-368 -369 316 0
-37 24 0
-37 26 0
-370 -318 371 0
-370 -371 318 0
-372 -320 373 0
-372 -373 320 0
-374 -322 375 0
-374 -375 322 0
-376 -324 377 0
-376 -377 324 0
-378 379 0
-378 387 0
-379 380 0
-379 385 0
-38 -39 40 0
-38 -40 39 0
-380 381 0
-380 383 0
-381 -146 382 0
-381 -382 146 0
-383 -151 384 0
-383 -384 151 0
-385 -157 386 0
-385 -386 157 0
-387 -167 388 0
-387 -388 167 0
-389 378 0
-389 390 0
-390 391 0
-390 8 0
-391 -50 392 0
-391 50 402 0
-392 -60 393 0
-392 60 398 0
-393 271 0
-393 394 0
-394 271 0
-394 395 0
-395 271 0
-395 396 0
-396 -19 397 0
-396 -397 19 0
-398 -86 399 0
-398 86 402 0
-399 -89 393 0
-399 89 400 0
-4 412 0
-4 5 0
-40 -41 -44 0
-40 41 44 0
-400 -101 393 0
-400 101 401 0
-401 -129 402 0
-401 129 404 0
-402 -397 403 0
-402 -403 397 0
-404 -134 402 0
-404 134 405 0
-405 -138 402 0
-405 138 406 0
-406 -240 402 0
-406 240 407 0
-407 -263 402 0
-407 263 408 0
-408 -89 409 0
-408 89 410 0
-409 -397 61 0
-409 -61 397 0
-41 -42 -43 0
-41 42 43 0
-410 -277 393 0
-410 277 411 0
-411 -281 393 0
-411 281 402 0
-412 378 0
-412 413 0
-413 378 0
-413 414 0
-414 415 0
-414 421 0
-415 199 0
-415 416 0
-416 417 0
-416 49 0
-417 10 0
-417 418 0
-418 -419 420 0
-418 -420 419 0
-421 -50 422 0
-421 50 431 0
-422 -60 423 0
-422 60 427 0
-423 271 0
-423 424 0
-424 271 0
-424 425 0
-425 271 0
-425 426 0
-426 -19 420 0
-426 -420 19 0
-427 -86 428 0
-427 86 431 0
-428 -89 423 0
-428 89 429 0
-429 -101 423 0
-429 101 430 0
-430 -129 431 0
-430 129 433 0
-431 -420 432 0
-431 -432 420 0
-433 -134 431 0
-433 134 434 0
-434 -138 431 0
-434 138 435 0
-435 -240 436 0
-435 240 431 0
-436 -243 437 0
-436 243 423 0
-437 -420 61 0
-437 -61 420 0
-438 378 0
-438 439 0
-439 440 0
-439 705 0
-44 45 48 0
-440 441 0
-440 8 0
-441 442 0
-441 635 0
-442 421 0
-442 443 0
-443 -50 444 0
-443 50 604 0
-444 -60 445 0
-444 60 492 0
-445 446 0
-445 490 0
-446 447 0
-446 488 0
-447 448 0
-447 486 0
-448 449 0
-448 484 0
-449 450 0
-449 482 0
-45 46 47 0
-450 451 0
-450 480 0
-451 452 0
-451 478 0
-452 453 0
-452 476 0
-453 454 0
-453 474 0
-454 455 0
-454 472 0
-455 456 0
-455 470 0
-456 457 0
-456 468 0
-457 458 0
-457 466 0
-458 459 0
-458 464 0
-459 460 0
-459 462 0
-46 31 0
-46 32 0
-460 -19 461 0
-460 -461 19 0
-462 -19 463 0
-462 -463 19 0
-464 -19 465 0
-464 -465 19 0
-466 -19 467 0
-466 -467 19 0
-468 -19 469 0
-468 -469 19 0
-47 32 0
-47 33 0
-470 -19 471 0
-470 -471 19 0
-472 -19 473 0
-472 -473 19 0
-474 -19 475 0
-474 -475 19 0
-476 -19 477 0
-476 -477 19 0
-478 -19 479 0
-478 -479 19 0
-48 31 0
-48 33 0
-480 -19 481 0
-480 -481 19 0
-482 -19 483 0
-482 -483 19 0
-484 -19 485 0
-484 -485 19 0
-486 -19 487 0
-486 -487 19 0
-488 -19 489 0
-488 -489 19 0
-49 -50 59 0
-49 50 105 0
-490 -19 491 0
-490 -491 19 0
-492 -86 493 0
-492 86 604 0
-493 -494 445 0
-493 494 505 0
-494 495 0
-494 503 0
-495 496 0
-495 501 0
-496 497 0
-496 499 0
-497 -19 498 0
-497 -498 19 0
-499 -19 500 0
-499 -500 19 0
-5 389 0
-5 6 0
-50 51 55 0
-501 -19 502 0
-501 -502 19 0
-503 -19 504 0
-503 -504 19 0
-505 -506 510 0
-505 506 604 0
-506 503 0
-506 507 0
-507 501 0
-507 508 0
-508 499 0
-508 509 0
-509 -498 61 0
-509 -61 498 0
-51 -52 0
-510 511 0
-510 599 0
-511 512 0
-511 594 0
-512 513 0
-512 589 0
-513 514 0
-513 584 0
-514 515 0
-514 579 0
-515 516 0
-515 574 0
-516 517 0
-516 569 0
-517 518 0
-517 564 0
-518 519 0
-518 559 0
-519 520 0
-519 554 0
-52 -53 54 0
-52 -54 53 0
-520 521 0
-520 549 0
-521 522 0
-521 544 0
-522 523 0
-522 539 0
-523 524 0
-523 534 0
-524 525 0
-524 529 0
-525 -461 526 0
-525 -526 461 0
-526 -527 -19 0
-526 527 19 0
-527 -528 -61 0
-527 528 61 0
-529 -463 530 0
-529 -530 463 0
-530 -531 -533 0
-530 531 533 0
-531 -532 -19 0
-531 532 19 0
-533 528 19 0
-534 -465 535 0
-534 -535 465 0
-535 -536 -538 0
-535 536 538 0
-536 -537 -19 0
-536 537 19 0
-538 532 0
-538 533 0
-539 -467 540 0
-539 -540 467 0
-540 -541 -543 0
-540 541 543 0
-541 -542 -19 0
-541 542 19 0
-543 537 0
-543 538 0
-544 -469 545 0
-544 -545 469 0
-545 -546 -548 0
-545 546 548 0
-546 -547 -19 0
-546 547 19 0
-548 542 0
-548 543 0
-549 -471 550 0
-549 -550 471 0
-55 -56 0
-550 -551 -553 0
-550 551 553 0
-551 -552 -19 0
-551 552 19 0
-553 547 0
-553 548 0
-554 -473 555 0
-554 -555 473 0
-555 -556 -558 0
-555 556 558 0
-556 -557 -19 0
-556 557 19 0
-558 552 0
-558 553 0
-559 -475 560 0
-559 -560 475 0
-56 -57 58 0
-56 -58 57 0
-560 -561 -563 0
-560 561 563 0
-561 -562 -19 0
-561 562 19 0
-563 557 0
-563 558 0
-564 -477 565 0
-564 -565 477 0
-565 -566 -568 0
-565 566 568 0
-566 -567 -19 0
-566 567 19 0
-568 562 0
-568 563 0
-569 -479 570 0
-569 -570 479 0
-570 -571 -573 0
-570 571 573 0
-571 -572 -19 0
-571 572 19 0
-573 567 0
-573 568 0
-574 -481 575 0
-574 -575 481 0
-575 -576 -578 0
-575 576 578 0
-576 -577 -19 0
-576 577 19 0
-578 572 0
-578 573 0
-579 -483 580 0
-579 -580 483 0
-580 -581 -583 0
-580 581 583 0
-581 -582 -19 0
-581 582 19 0
-583 577 0
-583 578 0
-584 -485 585 0
-584 -585 485 0
-585 -586 -588 0
-585 586 588 0
-586 -587 -19 0
-586 587 19 0
-588 582 0
-588 583 0
-589 -487 590 0
-589 -590 487 0
-59 -60 62 0
-59 60 85 0
-590 -591 -593 0
-590 591 593 0
-591 -592 -19 0
-591 592 19 0
-593 587 0
-593 588 0
-594 -489 595 0
-594 -595 489 0
-595 -596 -598 0
-595 596 598 0
-596 -597 -19 0
-596 597 19 0
-598 592 0
-598 593 0
-599 -491 600 0
-599 -600 491 0
-6 378 0
-6 7 0
-60 -57 61 0
-60 -61 57 0
-600 -601 -603 0
-600 601 603 0
-601 -602 -19 0
-601 602 19 0
-603 597 0
-603 598 0
-604 605 0
-604 634 0
-605 606 0
-605 633 0
-606 607 0
-606 632 0
-607 608 0
-607 631 0
-608 609 0
-608 630 0
-609 610 0
-609 629 0
-610 611 0
-610 628 0
-611 612 0
-611 627 0
-612 613 0
-612 626 0
-613 614 0
-613 625 0
-614 615 0
-614 624 0
-615 616 0
-615 623 0
-616 617 0
-616 622 0
-617 618 0
-617 621 0
-618 619 0
-618 620 0
-619 -461 528 0
-619 -528 461 0
-62 63 0
-62 83 0
-620 -463 532 0
-620 -532 463 0
-621 -465 537 0
-621 -537 465 0
-622 -467 542 0
-622 -542 467 0
-623 -469 547 0
-623 -547 469 0
-624 -471 552 0
-624 -552 471 0
-625 -473 557 0
-625 -557 473 0
-626 -475 562 0
-626 -562 475 0
-627 -477 567 0
-627 -567 477 0
-628 -479 572 0
-628 -572 479 0
-629 -481 577 0
-629 -577 481 0
-63 64 0
-63 81 0
-630 -483 582 0
-630 -582 483 0
-631 -485 587 0
-631 -587 485 0
-632 -487 592 0
-632 -592 487 0
-633 -489 597 0
-633 -597 489 0
-634 -491 602 0
-634 -602 491 0
-635 -50 636 0
-635 50 656 0
-636 -60 637 0
-636 60 648 0
-637 638 0
-637 646 0
-638 639 0
-638 644 0
-639 640 0
-639 642 0
-64 65 0
-64 79 0
-640 -19 641 0
-640 -641 19 0
-642 -19 643 0
-642 -643 19 0
-644 -19 645 0
-644 -645 19 0
-646 -19 647 0
-646 -647 19 0
-648 -86 649 0
-648 86 656 0
-649 -494 650 0
-649 494 663 0
-65 66 0
-65 77 0
-650 -651 652 0
-650 651 656 0
-651 -432 61 0
-651 -61 432 0
-652 646 0
-652 653 0
-653 644 0
-653 654 0
-654 642 0
-654 655 0
-655 -61 641 0
-655 -641 61 0
-656 657 0
-656 662 0
-657 658 0
-657 661 0
-658 659 0
-658 660 0
-659 -498 641 0
-659 -641 498 0
-66 67 0
-66 75 0
-660 -500 643 0
-660 -643 500 0
-661 -502 645 0
-661 -645 502 0
-662 -504 647 0
-662 -647 504 0
-663 -506 664 0
-663 506 668 0
-664 646 0
-664 665 0
-665 644 0
-665 666 0
-666 640 0
-666 667 0
-667 -61 643 0
-667 -643 61 0
-668 -669 673 0
-668 669 637 0
-669 503 0
-669 670 0
-67 68 0
-67 73 0
-670 501 0
-670 671 0
-671 497 0
-671 672 0
-672 -500 61 0
-672 -61 500 0
-673 -674 637 0
-673 674 652 0
-674 675 0
-674 704 0
-675 676 0
-675 703 0
-676 677 0
-676 702 0
-677 678 0
-677 701 0
-678 679 0
-678 700 0
-679 680 0
-679 699 0
-68 69 0
-68 71 0
-680 681 0
-680 698 0
-681 682 0
-681 697 0
-682 683 0
-682 696 0
-683 684 0
-683 695 0
-684 685 0
-684 694 0
-685 686 0
-685 693 0
-686 687 0
-686 692 0
-687 688 0
-687 691 0
-688 689 0
-688 690 0
-689 -528 61 0
-689 -61 528 0
-69 -61 70 0
-69 -70 61 0
-690 -532 61 0
-690 -61 532 0
-691 -537 61 0
-691 -61 537 0
-692 -542 61 0
-692 -61 542 0
-693 -547 61 0
-693 -61 547 0
-694 -552 61 0
-694 -61 552 0
-695 -557 61 0
-695 -61 557 0
-696 -562 61 0
-696 -61 562 0
-697 -567 61 0
-697 -61 567 0
-698 -572 61 0
-698 -61 572 0
-699 -577 61 0
-699 -61 577 0
-7 300 0
-7 8 0
-700 -582 61 0
-700 -61 582 0
-701 -587 61 0
-701 -61 587 0
-702 -592 61 0
-702 -61 592 0
-703 -597 61 0
-703 -61 597 0
-704 -602 61 0
-704 -61 602 0
-705 378 0
-705 706 0
-706 -50 707 0
-706 50 717 0
-707 -60 708 0
-707 60 710 0
-708 -61 709 0
-708 -709 61 0
-71 -61 72 0
-71 -72 61 0
-710 -86 711 0
-710 86 717 0
-711 -494 708 0
-711 494 712 0
-712 -506 713 0
-712 506 717 0
-713 271 0
-713 714 0
-714 271 0
-714 715 0
-715 271 0
-715 716 0
-716 -19 709 0
-716 -709 19 0
-717 -709 718 0
-717 -718 709 0
-719 378 0
-719 720 0
-720 721 0
-720 8 0
-721 -50 722 0
-721 50 729 0
-722 -60 723 0
-722 60 725 0
-723 -61 724 0
-723 -724 61 0
-725 -86 726 0
-725 86 729 0
-726 -89 723 0
-726 89 727 0
-727 -101 723 0
-727 101 728 0
-728 -129 729 0
-728 129 731 0
-729 -724 730 0
-729 -730 724 0
-73 -61 74 0
-73 -74 61 0
-731 -134 729 0
-731 134 732 0
-732 -138 729 0
-732 138 733 0
-733 -240 729 0
-733 240 734 0
-734 -263 729 0
-734 263 735 0
-735 -89 729 0
-735 89 736 0
-736 -277 729 0
-736 277 737 0
-737 -281 729 0
-737 281 738 0
-738 -284 739 0
-738 284 743 0
-739 271 0
-739 740 0
-740 271 0
-740 741 0
-741 271 0
-741 742 0
-742 -19 724 0
-742 -724 19 0
-743 -286 744 0
-743 286 729 0
-744 -288 723 0
-744 288 729 0
-745 378 0
-745 746 0
-746 747 0
-746 8 0
-747 -50 748 0
-747 50 757 0
-748 -60 749 0
-748 60 754 0
-749 271 0
-749 750 0
-75 -61 76 0
-75 -76 61 0
-750 271 0
-750 751 0
-751 271 0
-751 752 0
-752 -19 753 0
-752 -753 19 0
-754 -86 755 0
-754 86 757 0
-755 -89 749 0
-755 89 756 0
-756 -101 757 0
-756 101 759 0
-757 -753 758 0
-757 -758 753 0
-759 -129 757 0
-759 129 760 0
-760 -134 757 0
-760 134 761 0
-761 -138 757 0
-761 138 762 0
-762 -240 763 0
-762 240 765 0
-763 -243 764 0
-763 243 757 0
-764 -61 753 0
-764 -753 61 0
-765 -263 749 0
-765 263 757 0
-77 -61 78 0
-77 -78 61 0
-79 -61 80 0
-79 -80 61 0
-8 199 0
-8 9 0
-81 -61 82 0
-81 -82 61 0
-83 -61 84 0
-83 -84 61 0
-85 -86 88 0
-85 86 105 0
-86 51 0
-86 87 0
-87 -53 61 0
-87 -61 53 0
-88 -89 62 0
-88 89 100 0
-89 90 0
-89 98 0
-9 10 0
-9 49 0
-90 91 0
-90 96 0
-91 92 0
-91 94 0
-92 -19 93 0
-92 -93 19 0
-94 -19 95 0
-94 -95 19 0
-96 -19 97 0
-96 -97 19 0
-98 -19 99 0
-98 -99 19 0
1 -2 -745 0
1 0
10 -11 -38 0
100 -101 -105 0
100 -105 -128 0
100 101 -128 0
101 -102 -98 0
102 -103 -96 0
103 -104 -94 0
104 -93 -61 0
104 93 61 0
105 -106 -126 0
106 -107 -124 0
107 -108 -122 0
108 -109 -120 0
109 -110 -118 0
11 -12 -27 0
110 -111 -116 0
111 -112 -114 0
112 -70 -113 0
112 70 113 0
114 -72 -115 0
114 72 115 0
116 -74 -117 0
116 74 117 0
118 -76 -119 0
118 76 119 0
12 -13 -20 0
120 -78 -121 0
120 78 121 0
122 -80 -123 0
122 80 123 0
124 -82 -125 0
124 82 125 0
126 -84 -127 0
126 84 127 0
128 -105 -133 0
128 -129 -105 0
128 129 -133 0
129 -130 -98 0
13 -14 -15 0
13 14 15 0
130 -131 -96 0
131 -92 -132 0
132 -95 -61 0
132 95 61 0
133 -105 -137 0
133 -134 -105 0
133 134 -137 0
134 -135 -98 0
135 -136 -96 0
136 -104 -132 0
137 -138 -141 0
137 -141 -105 0
137 138 -105 0
138 -139 -98 0
139 -91 -140 0
140 -97 -61 0
140 97 61 0
141 -142 -176 0
141 -176 -105 0
141 142 -105 0
142 -143 -166 0
143 -144 -156 0
144 -145 -150 0
145 -146 -19 0
145 146 19 0
146 -147 19 0
146 -19 147 0
147 -148 149 0
147 -149 148 0
15 -16 19 0
15 -19 16 0
150 -151 -19 0
150 151 19 0
151 -152 155 0
151 -155 152 0
152 -153 154 0
152 -154 153 0
155 -148 -149 0
156 -157 -19 0
156 157 19 0
157 -158 161 0
157 -161 158 0
158 -159 160 0
158 -160 159 0
16 -17 18 0
16 -18 17 0
161 -162 0
161 -165 0
162 -163 0
162 -164 0
163 -153 -154 0
164 -154 -155 0
165 -153 -155 0
166 -167 -19 0
166 167 19 0
167 -168 171 0
167 -171 168 0
168 -169 170 0
168 -170 169 0
171 -172 0
171 -175 0
172 -173 0
172 -174 0
173 -159 -160 0
174 -160 -161 0
175 -159 -161 0
176 -177 -197 0
177 -178 -195 0
178 -179 -193 0
179 -180 -191 0
180 -181 -189 0
181 -182 -187 0
182 -183 -185 0
183 -70 -184 0
183 70 184 0
185 -72 -186 0
185 72 186 0
187 -74 -188 0
187 74 188 0
189 -76 -190 0
189 76 190 0
191 -78 -192 0
191 78 192 0
193 -80 -194 0
193 80 194 0
195 -82 -196 0
195 82 196 0
197 -84 -198 0
197 84 198 0
199 -200 -293 0
199 -50 -200 0
199 50 -293 0
2 -3 -719 0
20 -21 -22 0
20 21 22 0
200 -201 -212 0
200 -60 -201 0
200 60 -212 0
201 -202 -210 0
202 -203 -208 0
203 -204 -206 0
204 -205 -19 0
204 205 19 0
206 -207 -19 0
206 207 19 0
208 -209 -19 0
208 209 19 0
210 -211 -19 0
210 211 19 0
212 -213 -293 0
212 -86 -213 0
212 86 -293 0
213 -214 -219 0
213 -89 -214 0
213 89 -219 0
214 -142 -215 0
214 -215 -201 0
214 142 -201 0
215 -216 -210 0
216 -217 -208 0
217 -218 -206 0
218 -205 -61 0
218 205 61 0
219 -101 -220 0
219 -220 -225 0
219 101 -225 0
22 -23 26 0
22 -26 23 0
220 -142 -221 0
220 -221 -201 0
220 142 -201 0
221 -222 -210 0
222 -223 -208 0
223 -204 -224 0
224 -207 -61 0
224 207 61 0
225 -129 -226 0
225 -226 -230 0
225 129 -230 0
226 -142 -227 0
226 -227 -201 0
226 142 -201 0
227 -228 -210 0
228 -229 -208 0
229 -218 -224 0
23 -24 25 0
23 -25 24 0
230 -134 -231 0
230 -231 -235 0
230 134 -235 0
231 -142 -232 0
231 -232 -201 0
231 142 -201 0
232 -233 -210 0
233 -203 -234 0
234 -209 -61 0
234 209 61 0
235 -138 -236 0
235 -236 -239 0
235 138 -239 0
236 -142 -237 0
236 -237 -201 0
236 142 -201 0
237 -238 -210 0
238 -217 -234 0
239 -240 -242 0
239 -242 -262 0
239 240 -262 0
240 -241 -98 0
241 -103 -140 0
242 -243 -258 0
242 -258 -260 0
242 243 -260 0
243 -244 -257 0
244 -245 -256 0
245 -246 -255 0
246 -247 -254 0
247 -248 -253 0
248 -249 -252 0
249 -250 -251 0
250 -113 -19 0
250 113 19 0
251 -115 -19 0
251 115 19 0
252 -117 -19 0
252 117 19 0
253 -119 -19 0
253 119 19 0
254 -121 -19 0
254 121 19 0
255 -123 -19 0
255 123 19 0
256 -125 -19 0
256 125 19 0
257 -127 -19 0
257 127 19 0
258 -259 -210 0
259 -223 -234 0
26 -17 -18 0
260 -228 -261 0
261 -211 -61 0
261 211 61 0
262 -263 -265 0
262 -265 -274 0
262 263 -274 0
263 -264 -98 0
264 -131 -140 0
265 -201 -272 0
265 -266 -201 0
265 266 -272 0
266 -267 -271 0
267 -268 -271 0
268 -269 -271 0
269 -270 -19 0
269 270 19 0
27 -28 -29 0
27 28 29 0
271 -19 -19 0
271 19 19 0
272 -273 -210 0
273 -229 -234 0
274 -275 -276 0
274 -89 -275 0
274 89 -276 0
275 -216 -261 0
276 -277 -279 0
276 -279 -280 0
276 277 -280 0
277 -278 -98 0
278 -136 -140 0
279 -222 -261 0
280 -279 -283 0
280 -281 -279 0
280 281 -283 0
281 -102 -282 0
282 -99 -61 0
282 99 61 0
283 -260 -285 0
283 -284 -260 0
283 284 -285 0
284 -130 -282 0
285 -286 -287 0
285 -287 -201 0
285 286 -201 0
286 -135 -282 0
287 -201 -293 0
287 -288 -201 0
287 288 -293 0
288 -289 -166 0
289 -290 -156 0
29 -30 33 0
29 -33 30 0
290 -291 -292 0
291 -146 -61 0
291 146 61 0
292 -151 -61 0
292 151 61 0
293 -294 -299 0
294 -295 -298 0
295 -296 -297 0
296 -205 -93 0
296 205 93 0
297 -207 -95 0
297 207 95 0
298 -209 -97 0
298 209 97 0
299 -211 -99 0
299 211 99 0
3 -4 -438 0
30 -31 32 0
30 -32 31 0
300 -301 -328 0
300 -50 -301 0
300 50 -328 0
301 -302 -325 0
301 -60 -302 0
301 60 -325 0
302 -303 -323 0
303 -304 -321 0
304 -305 -319 0
305 -306 -317 0
306 -307 -315 0
307 -308 -313 0
308 -309 -311 0
309 -310 -61 0
309 310 61 0
311 -312 -61 0
311 312 61 0
313 -314 -61 0
313 314 61 0
315 -316 -61 0
315 316 61 0
317 -318 -61 0
317 318 61 0
319 -320 -61 0
319 320 61 0
321 -322 -61 0
321 322 61 0
323 -324 -61 0
323 324 61 0
325 -326 -328 0
325 -86 -326 0
325 86 -328 0
326 -302 -327 0
326 -89 -302 0
326 89 -327 0
327 -101 -328 0
327 -328 -351 0
327 101 -351 0
328 -329 -349 0
329 -330 -347 0
33 -34 0
33 -37 0
330 -331 -345 0
331 -332 -343 0
332 -333 -341 0
333 -334 -339 0
334 -335 -337 0
335 -310 -336 0
335 310 336 0
337 -312 -338 0
337 312 338 0
339 -314 -340 0
339 314 340 0
34 -35 0
34 -36 0
341 -316 -342 0
341 316 342 0
343 -318 -344 0
343 318 344 0
345 -320 -346 0
345 320 346 0
347 -322 -348 0
347 322 348 0
349 -324 -350 0
349 324 350 0
35 -24 -25 0
351 -129 -328 0
351 -328 -352 0
351 129 -352 0
352 -134 -328 0
352 -328 -353 0
352 134 -353 0
353 -138 -354 0
353 -354 -328 0
353 138 -328 0
354 -142 -355 0
354 -355 -328 0
354 142 -328 0
355 -356 -376 0
356 -357 -374 0
357 -358 -372 0
358 -359 -370 0
359 -360 -368 0
36 -25 -26 0
360 -361 -366 0
361 -362 -364 0
362 -310 -363 0
362 310 363 0
364 -312 -365 0
364 312 365 0
366 -314 -367 0
366 314 367 0
368 -316 -369 0
368 316 369 0
37 -24 -26 0
370 -318 -371 0
370 318 371 0
372 -320 -373 0
372 320 373 0
374 -322 -375 0
374 322 375 0
376 -324 -377 0
376 324 377 0
378 -379 -387 0
379 -380 -385 0
38 -39 -40 0
38 39 40 0
380 -381 -383 0
381 -382 -146 0
381 382 146 0
383 -384 -151 0
383 384 151 0
385 -386 -157 0
385 386 157 0
387 -388 -167 0
387 388 167 0
389 -390 -378 0
390 -8 -391 0
391 -392 -402 0
391 -50 -392 0
391 50 -402 0
392 -393 -398 0
392 -60 -393 0
392 60 -398 0
393 -394 -271 0
394 -395 -271 0
395 -396 -271 0
396 -397 -19 0
396 397 19 0
398 -399 -402 0
398 -86 -399 0
398 86 -402 0
399 -393 -400 0
399 -89 -393 0
399 89 -400 0
4 -5 -412 0
40 -41 44 0
40 -44 41 0
400 -101 -393 0
400 -393 -401 0
400 101 -401 0
401 -129 -402 0
401 -402 -404 0
401 129 -404 0
402 -397 -403 0
402 397 403 0
404 -134 -402 0
404 -402 -405 0
404 134 -405 0
405 -138 -402 0
405 -402 -406 0
405 138 -406 0
406 -240 -402 0
406 -402 -407 0
406 240 -407 0
407 -263 -402 0
407 -402 -408 0
407 263 -408 0
408 -409 -410 0
408 -89 -409 0
408 89 -410 0
409 -397 -61 0
409 397 61 0
41 -42 43 0
41 -43 42 0
410 -277 -393 0
410 -393 -411 0
410 277 -411 0
411 -281 -393 0
411 -393 -402 0
411 281 -402 0
412 -413 -378 0
413 -414 -378 0
414 -415 -421 0
415 -416 -199 0
416 -417 -49 0
417 -418 -10 0
418 -419 -420 0
418 419 420 0
421 -422 -431 0
421 -50 -422 0
421 50 -431 0
422 -423 -427 0
422 -60 -423 0
422 60 -427 0
423 -424 -271 0
424 -425 -271 0
425 -426 -271 0
426 -420 -19 0
426 420 19 0
427 -428 -431 0
427 -86 -428 0
427 86 -431 0
428 -423 -429 0
428 -89 -423 0
428 89 -429 0
429 -101 -423 0
429 -423 -430 0
429 101 -430 0
430 -129 -431 0
430 -431 -433 0
430 129 -433 0
431 -420 -432 0
431 420 432 0
433 -134 -431 0
433 -431 -434 0
433 134 -434 0
434 -138 -431 0
434 -431 -435 0
434 138 -435 0
435 -240 -436 0
435 -436 -431 0
435 240 -431 0
436 -243 -437 0
436 -437 -423 0
436 243 -423 0
437 -420 -61 0
437 420 61 0
438 -439 -378 0
439 -440 -705 0
44 -45 0
44 -48 0
440 -8 -441 0
441 -442 -635 0
442 -443 -421 0
443 -444 -604 0
443 -50 -444 0
443 50 -604 0
444 -445 -492 0
444 -60 -445 0
444 60 -492 0
445 -446 -490 0
446 -447 -488 0
447 -448 -486 0
448 -449 -484 0
449 -450 -482 0
45 -46 0
45 -47 0
450 -451 -480 0
451 -452 -478 0
452 -453 -476 0
453 -454 -474 0
454 -455 -472 0
455 -456 -470 0
456 -457 -468 0
457 -458 -466 0
458 -459 -464 0
459 -460 -462 0
46 -31 -32 0
460 -461 -19 0
460 461 19 0
462 -463 -19 0
462 463 19 0
464 -465 -19 0
464 465 19 0
466 -467 -19 0
466 467 19 0
468 -469 -19 0
468 469 19 0
47 -32 -33 0
470 -471 -19 0
470 471 19 0
472 -473 -19 0
472 473 19 0
474 -475 -19 0
474 475 19 0
476 -477 -19 0
476 477 19 0
478 -479 -19 0
478 479 19 0
48 -31 -33 0
480 -481 -19 0
480 481 19 0
482 -483 -19 0
482 483 19 0
484 -485 -19 0
484 485 19 0
486 -487 -19 0
486 487 19 0
488 -489 -19 0
488 489 19 0
49 -50 -59 0
49 -59 -105 0
49 50 -105 0
490 -491 -19 0
490 491 19 0
492 -493 -604 0
492 -86 -493 0
492 86 -604 0
493 -445 -505 0
493 -494 -445 0
493 494 -505 0
494 -495 -503 0
495 -496 -501 0
496 -497 -499 0
497 -498 -19 0
497 498 19 0
499 -500 -19 0
499 500 19 0
5 -6 -389 0
50 -51 0
50 -55 0
501 -502 -19 0
501 502 19 0
503 -504 -19 0
503 504 19 0
505 -506 -510 0
505 -510 -604 0
505 506 -604 0
506 -507 -503 0
507 -508 -501 0
508 -509 -499 0
509 -498 -61 0
509 498 61 0
51 52 0
510 -511 -599 0
511 -512 -594 0
512 -513 -589 0
513 -514 -584 0
514 -515 -579 0
515 -516 -574 0
516 -517 -569 0
517 -518 -564 0
518 -519 -559 0
519 -520 -554 0
52 -53 -54 0
52 53 54 0
520 -521 -549 0
521 -522 -544 0
522 -523 -539 0
523 -524 -534 0
524 -525 -529 0
525 -461 -526 0
525 461 526 0
526 -19 527 0
526 -527 19 0
527 -528 61 0
527 -61 528 0
529 -463 -530 0
529 463 530 0
530 -531 533 0
530 -533 531 0
531 -19 532 0
531 -532 19 0
533 -19 0
533 -528 0
534 -465 -535 0
534 465 535 0
535 -536 538 0
535 -538 536 0
536 -19 537 0
536 -537 19 0
538 -532 -533 0
539 -467 -540 0
539 467 540 0
540 -541 543 0
540 -543 541 0
541 -19 542 0
541 -542 19 0
543 -537 -538 0
544 -469 -545 0
544 469 545 0
545 -546 548 0
545 -548 546 0
546 -19 547 0
546 -547 19 0
548 -542 -543 0
549 -471 -550 0
549 471 550 0
55 56 0
550 -551 553 0
550 -553 551 0
551 -19 552 0
551 -552 19 0
553 -547 -548 0
554 -473 -555 0
554 473 555 0
555 -556 558 0
555 -558 556 0
556 -19 557 0
556 -557 19 0
558 -552 -553 0
559 -475 -560 0
559 475 560 0
56 -57 -58 0
56 57 58 0
560 -561 563 0
560 -563 561 0
561 -19 562 0
561 -562 19 0
563 -557 -558 0
564 -477 -565 0
564 477 565 0
565 -566 568 0
565 -568 566 0
566 -19 567 0
566 -567 19 0
568 -562 -563 0
569 -479 -570 0
569 479 570 0
570 -571 573 0
570 -573 571 0
571 -19 572 0
571 -572 19 0
573 -567 -568 0
574 -481 -575 0
574 481 575 0
575 -576 578 0
575 -578 576 0
576 -19 577 0
576 -577 19 0
578 -572 -573 0
579 -483 -580 0
579 483 580 0
580 -581 583 0
580 -583 581 0
581 -19 582 0
581 -582 19 0
583 -577 -578 0
584 -485 -585 0
584 485 585 0
585 -586 588 0
585 -588 586 0
586 -19 587 0
586 -587 19 0
588 -582 -583 0
589 -487 -590 0
589 487 590 0
59 -60 -62 0
59 -62 -85 0
59 60 -85 0
590 -591 593 0
590 -593 591 0
591 -19 592 0
591 -592 19 0
593 -587 -588 0
594 -489 -595 0
594 489 595 0
595 -596 598 0
595 -598 596 0
596 -19 597 0
596 -597 19 0
598 -592 -593 0
599 -491 -600 0
599 491 600 0
6 -7 -378 0
60 -57 -61 0
60 57 61 0
600 -601 603 0
600 -603 601 0
601 -19 602 0
601 -602 19 0
603 -597 -598 0
604 -605 -634 0
605 -606 -633 0
606 -607 -632 0
607 -608 -631 0
608 -609 -630 0
609 -610 -629 0
61 0
610 -611 -628 0
611 -612 -627 0
612 -613 -626 0
613 -614 -625 0
614 -615 -624 0
615 -616 -623 0
616 -617 -622 0
617 -618 -621 0
618 -619 -620 0
619 -461 -528 0
619 461 528 0
62 -63 -83 0
620 -463 -532 0
620 463 532 0
621 -465 -537 0
621 465 537 0
622 -467 -542 0
622 467 542 0
623 -469 -547 0
623 469 547 0
624 -471 -552 0
624 471 552 0
625 -473 -557 0
625 473 557 0
626 -475 -562 0
626 475 562 0
627 -477 -567 0
627 477 567 0
628 -479 -572 0
628 479 572 0
629 -481 -577 0
629 481 577 0
63 -64 -81 0
630 -483 -582 0
630 483 582 0
631 -485 -587 0
631 485 587 0
632 -487 -592 0
632 487 592 0
633 -489 -597 0
633 489 597 0
634 -491 -602 0
634 491 602 0
635 -50 -636 0
635 -636 -656 0
635 50 -656 0
636 -60 -637 0
636 -637 -648 0
636 60 -648 0
637 -638 -646 0
638 -639 -644 0
639 -640 -642 0
64 -65 -79 0
640 -641 -19 0
640 641 19 0
642 -643 -19 0
642 643 19 0
644 -645 -19 0
644 645 19 0
646 -647 -19 0
646 647 19 0
648 -649 -656 0
648 -86 -649 0
648 86 -656 0
649 -494 -650 0
649 -650 -663 0
649 494 -663 0
65 -66 -77 0
650 -651 -652 0
650 -652 -656 0
650 651 -656 0
651 -432 -61 0
651 432 61 0
652 -653 -646 0
653 -654 -644 0
654 -655 -642 0
655 -641 -61 0
655 641 61 0
656 -657 -662 0
657 -658 -661 0
658 -659 -660 0
659 -641 -498 0
659 641 498 0
66 -67 -75 0
660 -643 -500 0
660 643 500 0
661 -645 -502 0
661 645 502 0
662 -647 -504 0
662 647 504 0
663 -506 -664 0
663 -664 -668 0
663 506 -668 0
664 -665 -646 0
665 -666 -644 0
666 -640 -667 0
667 -643 -61 0
667 643 61 0
668 -669 -673 0
668 -673 -637 0
668 669 -637 0
669 -670 -503 0
67 -68 -73 0
670 -671 -501 0
671 -497 -672 0
672 -500 -61 0
672 500 61 0
673 -637 -652 0
673 -674 -637 0
673 674 -652 0
674 -675 -704 0
675 -676 -703 0
676 -677 -702 0
677 -678 -701 0
678 -679 -700 0
679 -680 -699 0
68 -69 -71 0
680 -681 -698 0
681 -682 -697 0
682 -683 -696 0
683 -684 -695 0
684 -685 -694 0
685 -686 -693 0
686 -687 -692 0
687 -688 -691 0
688 -689 -690 0
689 -528 -61 0
689 528 61 0
69 -70 -61 0
69 70 61 0
690 -532 -61 0
690 532 61 0
691 -537 -61 0
691 537 61 0
692 -542 -61 0
692 542 61 0
693 -547 -61 0
693 547 61 0
694 -552 -61 0
694 552 61 0
695 -557 -61 0
695 557 61 0
696 -562 -61 0
696 562 61 0
697 -567 -61 0
697 567 61 0
698 -572 -61 0
698 572 61 0
699 -577 -61 0
699 577 61 0
7 -8 -300 0
700 -582 -61 0
700 582 61 0
701 -587 -61 0
701 587 61 0
702 -592 -61 0
702 592 61 0
703 -597 -61 0
703 597 61 0
704 -602 -61 0
704 602 61 0
705 -706 -378 0
706 -50 -707 0
706 -707 -717 0
706 50 -717 0
707 -60 -708 0
707 -708 -710 0
707 60 -710 0
708 -709 -61 0
708 709 61 0
71 -72 -61 0
71 72 61 0
710 -711 -717 0
710 -86 -711 0
710 86 -717 0
711 -494 -708 0
711 -708 -712 0
711 494 -712 0
712 -506 -713 0
712 -713 -717 0
712 506 -717 0
713 -714 -271 0
714 -715 -271 0
715 -716 -271 0
716 -709 -19 0
716 709 19 0
717 -709 -718 0
717 709 718 0
719 -720 -378 0
720 -8 -721 0
721 -50 -722 0
721 -722 -729 0
721 50 -729 0
722 -60 -723 0
722 -723 -725 0
722 60 -725 0
723 -724 -61 0
723 724 61 0
725 -726 -729 0
725 -86 -726 0
725 86 -729 0
726 -723 -727 0
726 -89 -723 0
726 89 -727 0
727 -101 -723 0
727 -723 -728 0
727 101 -728 0
728 -129 -729 0
728 -729 -731 0
728 129 -731 0
729 -724 -730 0
729 724 730 0
73 -74 -61 0
73 74 61 0
731 -134 -729 0
731 -729 -732 0
731 134 -732 0
732 -138 -729 0
732 -729 -733 0
732 138 -733 0
733 -240 -729 0
733 -729 -734 0
733 240 -734 0
734 -263 -729 0
734 -729 -735 0
734 263 -735 0
735 -729 -736 0
735 -89 -729 0
735 89 -736 0
736 -277 -729 0
736 -729 -737 0
736 277 -737 0
737 -281 -729 0
737 -729 -738 0
737 281 -738 0
738 -284 -739 0
738 -739 -743 0
738 284 -743 0
739 -740 -271 0
740 -741 -271 0
741 -742 -271 0
742 -724 -19 0
742 724 19 0
743 -286 -744 0
743 -744 -729 0
743 286 -729 0
744 -288 -723 0
744 -723 -729 0
744 288 -729 0
745 -746 -378 0
746 -8 -747 0
747 -50 -748 0
747 -748 -757 0
747 50 -757 0
748 -60 -749 0
748 -749 -754 0
748 60 -754 0
749 -750 -271 0
75 -76 -61 0
75 76 61 0
750 -751 -271 0
751 -752 -271 0
752 -753 -19 0
752 753 19 0
754 -755 -757 0
754 -86 -755 0
754 86 -757 0
755 -749 -756 0
755 -89 -749 0
755 89 -756 0
756 -101 -757 0
756 -757 -759 0
756 101 -759 0
757 -753 -758 0
757 753 758 0
759 -129 -757 0
759 -757 -760 0
759 129 -760 0
760 -134 -757 0
760 -757 -761 0
760 134 -761 0
761 -138 -757 0
761 -757 -762 0
761 138 -762 0
762 -240 -763 0
762 -763 -765 0
762 240 -765 0
763 -243 -764 0
763 -764 -757 0
763 243 -757 0
764 -753 -61 0
764 753 61 0
765 -263 -749 0
765 -749 -757 0
765 263 -757 0
77 -78 -61 0
77 78 61 0
79 -80 -61 0
79 80 61 0
8 -9 -199 0
81 -82 -61 0
81 82 61 0
83 -84 -61 0
83 84 61 0
85 -86 -88 0
85 -88 -105 0
85 86 -105 0
86 -51 -87 0
87 -53 -61 0
87 53 61 0
88 -62 -100 0
88 -89 -62 0
88 89 -100 0
89 -90 -98 0
9 -10 -49 0
90 -91 -96 0
91 -92 -94 0
92 -93 -19 0
92 93 19 0
94 -95 -19 0
94 95 19 0
96 -97 -19 0
96 97 19 0
98 -99 -19 0
98 99 19 0
